(declare-const X String)
; YWRtaW46YWRtaW4www\x2Ee-finder\x2EccNSIS_DOWNLOADHost\x3A
(assert (str.in_re X (str.to_re "YWRtaW46YWRtaW4www.e-finder.ccNSIS_DOWNLOADHost:\u{a}")))
; Host\x3A\s+CD\x2F\s+twfofrfzlugq\x2feve\.qdSeconds\-\x2Ftoolbar\x2Fsupremetb
(assert (str.in_re X (re.++ (str.to_re "Host:") (re.+ (re.union (str.to_re " ") (str.to_re "\u{9}") (str.to_re "\u{a}") (str.to_re "\u{c}") (str.to_re "\u{d}"))) (str.to_re "CD/") (re.+ (re.union (str.to_re " ") (str.to_re "\u{9}") (str.to_re "\u{a}") (str.to_re "\u{c}") (str.to_re "\u{d}"))) (str.to_re "twfofrfzlugq/eve.qdSeconds-/toolbar/supremetb\u{a}"))))
; /filename=[^\n]*\x2ehpj/i
(assert (not (str.in_re X (re.++ (str.to_re "/filename=") (re.* (re.comp (str.to_re "\u{a}"))) (str.to_re ".hpj/i\u{a}")))))
; ^([0]?[1-9]|[1][0-2]|[2][0-3]):([0-5][0-9]|[1-9])$
(assert (str.in_re X (re.++ (re.union (re.++ (re.opt (str.to_re "0")) (re.range "1" "9")) (re.++ (str.to_re "1") (re.range "0" "2")) (re.++ (str.to_re "2") (re.range "0" "3"))) (str.to_re ":") (re.union (re.++ (re.range "0" "5") (re.range "0" "9")) (re.range "1" "9")) (str.to_re "\u{a}"))))
; toolsbar\x2Ekuaiso\x2Ecom\d\x2Fbar_pl\x2Fchk_bar\.fcgi
(assert (str.in_re X (re.++ (str.to_re "toolsbar.kuaiso.com") (re.range "0" "9") (str.to_re "/bar_pl/chk_bar.fcgi\u{a}"))))
(check-sat)
